p wcnf 168 252 253 
1 -72 136 0 
1 116 168 0 
1 -42 -163 0 
1 -161 121 0 
1 50 -131 0 
1 -138 162 0 
1 98 66 0 
1 -110 81 0 
1 40 -151 0 
1 -34 89 0 
1 -156 43 0 
1 -36 91 0 
1 -138 80 0 
1 90 -35 0 
1 158 17 0 
1 54 -16 0 
1 74 -77 0 
1 -16 123 0 
1 -24 55 0 
1 161 50 0 
1 -94 -16 0 
1 -155 84 0 
1 -48 70 0 
1 -153 54 0 
1 -102 -50 0 
1 123 -51 0 
1 98 52 0 
1 59 164 0 
1 -30 -9 0 
1 81 -20 0 
1 -12 -116 0 
1 -143 135 0 
1 -8 154 0 
1 -31 -72 0 
1 18 164 0 
1 123 25 0 
1 -41 -33 0 
1 109 -125 0 
1 135 -74 0 
1 -105 -59 0 
1 -64 -112 0 
1 -129 -125 0 
1 128 -122 0 
1 -70 -82 0 
1 24 111 0 
1 -117 -114 0 
1 41 166 0 
1 60 -130 0 
1 26 -54 0 
1 -140 73 0 
1 -66 -54 0 
1 -3 9 0 
1 107 -108 0 
1 -112 167 0 
1 -162 43 0 
1 128 97 0 
1 140 28 0 
1 140 61 0 
1 53 -115 0 
1 64 28 0 
1 -18 34 0 
1 -108 33 0 
1 -56 40 0 
1 118 -121 0 
1 9 163 0 
1 57 -124 0 
1 96 89 0 
1 144 153 0 
1 -24 -32 0 
1 -124 25 0 
1 -168 -45 0 
1 136 54 0 
1 -39 152 0 
1 -143 163 0 
1 -52 72 0 
1 -118 126 0 
1 4 -46 0 
1 -29 112 0 
1 147 -162 0 
1 125 -100 0 
1 92 17 0 
1 151 29 0 
1 128 -130 0 
1 -5 125 0 
1 -15 -117 0 
1 85 -162 0 
1 38 140 0 
1 65 113 0 
1 -139 60 0 
1 -132 -120 0 
1 -85 69 0 
1 -129 -87 0 
1 -141 -103 0 
1 -99 -49 0 
1 -25 -149 0 
1 -82 -135 0 
1 -67 -6 0 
1 -142 12 0 
1 -43 -99 0 
1 152 47 0 
1 88 -13 0 
1 -74 -55 0 
1 -65 147 0 
1 138 -44 0 
1 -138 -17 0 
1 -146 165 0 
1 49 -90 0 
1 72 21 0 
1 107 -123 0 
1 -70 16 0 
1 110 31 0 
1 -14 -3 0 
1 -134 33 0 
1 -147 57 0 
1 87 -129 0 
1 -158 110 0 
1 -162 -56 0 
1 -60 -57 0 
1 -8 -168 0 
1 103 -100 0 
1 -21 -158 0 
1 9 158 0 
1 -127 -116 0 
1 28 81 0 
1 -3 -118 0 
1 -92 -80 0 
1 153 -31 0 
1 -73 75 0 
1 124 101 0 
1 96 -76 0 
1 22 148 0 
1 129 130 0 
1 44 121 0 
1 -89 53 0 
1 81 -35 0 
1 -152 -164 0 
1 2 15 0 
1 -136 149 0 
1 13 -70 0 
1 -33 -90 0 
1 9 39 0 
1 100 71 0 
1 -155 164 0 
1 -26 35 0 
1 35 -123 0 
1 78 150 0 
1 -134 7 0 
1 13 -133 0 
1 161 12 0 
1 44 3 0 
1 -150 79 0 
1 147 -167 0 
1 -143 132 0 
1 54 167 0 
1 6 -7 0 
1 -77 -66 0 
1 64 -7 0 
1 100 -23 0 
1 -61 -58 0 
1 71 -101 0 
1 148 -153 0 
1 -4 97 0 
1 165 -75 0 
1 74 11 0 
1 -6 -16 0 
1 141 -142 0 
1 41 82 0 
1 128 47 0 
1 111 -123 0 
1 -4 -71 0 
1 -77 119 0 
1 -153 40 0 
1 25 164 0 
1 149 95 0 
1 -54 23 0 
1 84 44 0 
1 7 12 0 
1 132 154 0 
1 60 -40 0 
1 -23 -10 0 
1 -153 -132 0 
1 -31 22 0 
1 -84 -142 0 
1 -9 16 0 
1 -8 36 0 
1 136 -55 0 
1 -97 146 0 
1 130 70 0 
1 25 -11 0 
1 31 78 0 
1 -156 65 0 
1 99 49 0 
1 101 67 0 
1 -61 -43 0 
1 3 124 0 
1 107 127 0 
1 136 -118 0 
1 -123 8 0 
1 83 131 0 
1 14 -73 0 
1 22 9 0 
1 38 -55 0 
1 130 15 0 
1 -91 -114 0 
1 96 -143 0 
1 100 -13 0 
1 -125 -142 0 
1 26 82 0 
1 -73 -61 0 
1 -96 91 0 
1 -73 34 0 
1 168 14 0 
1 -77 128 0 
1 -51 41 0 
1 -104 13 0 
1 131 -158 0 
1 -47 141 0 
1 22 -80 0 
1 -63 -48 0 
1 99 136 0 
1 -139 163 0 
1 -140 -89 0 
1 157 108 0 
1 -94 -155 0 
1 131 -79 0 
1 -54 25 0 
1 118 -66 0 
1 -151 135 0 
1 -54 107 0 
1 -120 -57 0 
1 74 84 0 
1 76 72 0 
1 -115 129 0 
1 111 148 0 
1 61 -161 0 
1 -159 54 0 
1 11 62 0 
1 69 -3 0 
1 -143 115 0 
1 -166 -95 0 
1 79 -43 0 
1 -117 -5 0 
1 152 -96 0 
1 -59 -132 0 
1 -155 68 0 
1 -60 -12 0 
1 4 -141 0 
1 75 99 0 
1 163 -161 0 
1 63 -128 0 
1 28 138 0 
1 7 -149 0 
